generated by phonopy
   1.0
    -6.3392149710514429    6.3397684501535352    6.3392149710514429
     6.3397684501535352   -6.3392149710514429    6.3392149710514429
     6.3386614919493400    6.3386614919493400   -6.3386614919493400
Re W
   2   62
Direct
  0.5000000000000000  0.4999999999999999  0.2499999999999999
  0.5000000000000000  0.4999999999999999  0.7499999999999999
  0.0000000000000000  0.0000000000000000  0.0000000000000000
  0.0000000000000000  0.0000000000000000  0.4999999999999999
  0.0000000000000000  0.0000000000000000  0.2500000000000000
  0.0000000000000000  0.0000000000000000  0.7500000000000000
  0.0002586652255493  0.2501293326127748  0.0001293326127746
  0.0002586652255493  0.2501293326127748  0.5001293326127746
  0.0001264395376988  0.2500632197688423  0.2500632197688495
  0.0001264395376988  0.2500632197688423  0.7500632197688495
  0.0000000000000000  0.5000000000000000  0.0000000000000000
  0.0000000000000000  0.4999999999999999  0.4999999999999999
  0.0000000000000000  0.4999999999999999  0.2499999999999999
  0.0000000000000000  0.4999999999999999  0.7499999999999999
  0.9997413347744505  0.7498706673872326  0.4998706673872251
  0.9997413347744504  0.7498706673872326  0.9998706673872252
  0.9998735604623009  0.7499367802311578  0.2499367802311504
  0.9998735604623010  0.7499367802311578  0.7499367802311503
  0.2501293326127748  0.0002586652255493  0.0001293326127746
  0.2501293326127748  0.0002586652255493  0.5001293326127746
  0.2500632197688424  0.0001264395376988  0.2500632197688495
  0.2500632197688424  0.0001264395376987  0.7500632197688494
  0.2528024755513166  0.2500702754179847  0.0000700413582110
  0.2500702754179847  0.2500702754179847  0.5000700413582109
  0.2505953586025823  0.2505953586025822  0.2503446462105880
  0.2505953586025822  0.2505953586025821  0.7503446462105879
  0.2505953586025823  0.5000000000000000  0.0002507123919977
  0.2505953586025822  0.4999999999999999  0.5002507123919977
  0.2500702754179847  0.4999999999999999  0.2500002340597665
  0.2500702754179847  0.4999999999999999  0.7500002340597663
  0.2500632197688424  0.7499367802311578  0.0000000000000000
  0.2500632197688424  0.7499367802311578  0.4999999999999999
  0.2501293326127748  0.7498706673872326  0.2499999999999999
  0.2501293326127748  0.7498706673872325  0.7499999999999999
  0.5000000000000000  0.0000000000000000  0.0000000000000000
  0.5000000000000000  0.0000000000000000  0.4999999999999999
  0.4999999999999999  0.0000000000000000  0.2499999999999999
  0.5000000000000000  0.0000000000000000  0.7499999999999999
  0.5000000000000000  0.2505953586025823  0.0002507123919977
  0.5000000000000000  0.2505953586025822  0.5002507123919977
  0.5000000000000000  0.2500702754179847  0.2500002340597665
  0.5000000000000000  0.2500702754179847  0.7500002340597663
  0.5000000000000000  0.5000000000000000  0.0000000000000000
  0.5000000000000000  0.4999999999999999  0.4999999999999999
  0.4999999999999999  0.7494046413974177  0.4997492876080057
  0.5000000000000000  0.7494046413974177  0.9997492876080056
  0.5000000000000000  0.7499297245820153  0.2499997659402334
  0.5000000000000000  0.7499297245820152  0.7499997659402334
  0.7498706673872326  0.9997413347744504  0.4998706673872250
  0.7498706673872326  0.9997413347744503  0.9998706673872251
  0.7499367802311578  0.9998735604623009  0.2499367802311504
  0.7499367802311578  0.9998735604623009  0.7499367802311504
  0.7499367802311578  0.2500632197688424  0.0000000000000000
  0.7499367802311577  0.2500632197688424  0.4999999999999999
  0.7498706673872327  0.2501293326127749  0.2499999999999999
  0.7498706673872326  0.2501293326127748  0.7499999999999999
  0.7494046413974178  0.5000000000000000  0.4997492876080056
  0.7494046413974178  0.4999999999999999  0.9997492876080055
  0.7499297245820153  0.5000000000000000  0.2499997659402334
  0.7499297245820153  0.4999999999999999  0.7499997659402334
  0.7499297245820153  0.7499297245820153  0.4999299586417890
  0.7499297245820153  0.7499297245820152  0.9999299586417888
  0.7494046413974178  0.7494046413974178  0.2496553537894155
  0.7494046413974179  0.7494046413974178  0.7496553537894153
